1 1418
2 1159
6 1126
9 1104
40 1096
63 1073
77 1058
253 1052
328 1047



1 1394
2 1260
3 1195
5 1183
6 1127
7 1095
25 1091
97 1065
175 1048
357 1043
886 1034



1 1421
2 1228
3 1173
4 1110
9 1089
220 1080
274 1063
943 1056



1 1400
2 1260
3 1108
25 1106
35 1069
63 1057
358 1042
361 1040



1 1461
2 1187
3 1180
6 1164
7 1150
9 1147
12 1134
16 1052
681 1051
851 1024



